results/res_prop_muc/res_Cimatti_mathsat_cores/QF_LRA/sc-14.base.cvc.smt.smt2.out
### boolMucExtractionTime 3317565
