results/res_prop_muc/res_Cimatti_mathsat_cores/QF_LRA/sc-14.base.cvc.smt.smt2.res
unsat
( c0
  c1
  c10
  c100
  c1002
  c1003
  c1004
  c1005
  c1008
  c1010
  c1016
  c1021
  c1023
  c1031
  c1033
  c1037
  c1038
  c1039
  c1040
  c1045
  c1051
  c1052
  c1054
  c1062
  c1064
  c1068
  c1074
  c1079
  c1083
  c1086
  c1087
  c1090
  c1091
  c1094
  c1095
  c1098
  c1099
  c11
  c1102
  c1103
  c1105
  c1106
  c1110
  c1111
  c1113
  c1114
  c1118
  c1119
  c1121
  c1122
  c1123
  c1124
  c1125
  c1126
  c1127
  c1128
  c1129
  c1134
  c1135
  c1138
  c1139
  c1142
  c1143
  c1144
  c1145
  c1148
  c1149
  c1154
  c1157
  c1158
  c1160
  c1161
  c1162
  c1163
  c1164
  c1165
  c1166
  c1167
  c1168
  c1171
  c1172
  c1174
  c1175
  c1176
  c118
  c1180
  c1181
  c1182
  c1183
  c1186
  c1188
  c1194
  c1195
  c1197
  c12
  c1201
  c1209
  c1211
  c1215
  c1216
  c1217
  c1218
  c1223
  c1233
  c1234
  c1236
  c1240
  c1242
  c1246
  c1252
  c1257
  c1259
  c1264
  c1265
  c1268
  c1269
  c1272
  c1273
  c1281
  c1283
  c1288
  c1291
  c1292
  c1296
  c1297
  c1299
  c1300
  c1301
  c1302
  c1303
  c1304
  c1305
  c1306
  c1307
  c1312
  c1313
  c1317
  c1320
  c1321
  c1322
  c1323
  c1326
  c1327
  c1332
  c1335
  c1336
  c1338
  c1339
  c1340
  c1341
  c1342
  c1343
  c1344
  c1345
  c1346
  c1349
  c1350
  c1352
  c1353
  c1354
  c1358
  c1359
  c1360
  c1361
  c1364
  c1366
  c1376
  c1377
  c1379
  c1387
  c1389
  c1393
  c1394
  c1395
  c1396
  c14
  c1401
  c1407
  c1412
  c1416
  c1418
  c1420
  c1424
  c1430
  c1435
  c1437
  c1442
  c1443
  c1446
  c1447
  c1450
  c1451
  c1455
  c1459
  c1461
  c1462
  c1466
  c1469
  c1470
  c1475
  c1477
  c1478
  c1479
  c1480
  c1481
  c1482
  c1483
  c1484
  c1485
  c1490
  c1491
  c1495
  c1499
  c15
  c1500
  c1501
  c1504
  c1505
  c1510
  c1513
  c1514
  c1516
  c1517
  c1518
  c1519
  c1520
  c1521
  c1522
  c1523
  c1524
  c1527
  c1530
  c1531
  c1532
  c1536
  c1537
  c1538
  c1539
  c1542
  c1544
  c1550
  c1555
  c1557
  c1565
  c1567
  c1571
  c1572
  c1573
  c1574
  c1579
  c1585
  c1590
  c1594
  c1596
  c1598
  c1602
  c1608
  c1613
  c1617
  c1620
  c1621
  c1624
  c1625
  c1628
  c1629
  c1633
  c1637
  c1639
  c1640
  c1644
  c1647
  c1648
  c1653
  c1655
  c1656
  c1657
  c1658
  c1659
  c1660
  c1661
  c1662
  c1663
  c1668
  c1669
  c1673
  c1677
  c1678
  c1679
  c1682
  c1683
  c1688
  c1691
  c1692
  c1694
  c1695
  c1696
  c1697
  c1698
  c1699
  c1700
  c1701
  c1702
  c1705
  c1708
  c1709
  c1710
  c1714
  c1715
  c1716
  c1717
  c172
  c1720
  c1722
  c1728
  c1733
  c1735
  c1743
  c1745
  c1749
  c1750
  c1752
  c1757
  c1767
  c1768
  c1770
  c1774
  c1776
  c178
  c1780
  c1786
  c1791
  c1795
  c1799
  c18
  c1803
  c1806
  c1807
  c1811
  c1815
  c1817
  c1818
  c1822
  c1825
  c1826
  c1831
  c1833
  c1834
  c1835
  c1836
  c1837
  c1838
  c1839
  c184
  c1840
  c1841
  c1846
  c1847
  c1851
  c1855
  c1857
  c1861
  c1866
  c1869
  c1870
  c1872
  c1873
  c1874
  c1875
  c1876
  c1877
  c1878
  c1879
  c1880
  c1883
  c1886
  c1887
  c1888
  c1892
  c1893
  c1894
  c1895
  c1898
  c19
  c1900
  c1906
  c1907
  c1909
  c1913
  c1921
  c1923
  c1928
  c1930
  c1935
  c1941
  c1946
  c1948
  c1952
  c1954
  c1958
  c196
  c1964
  c1969
  c197
  c1971
  c1977
  c1981
  c1985
  c1989
  c1993
  c1995
  c1996
  c2
  c200
  c2000
  c2003
  c2004
  c2009
  c201
  c2011
  c2012
  c2013
  c2014
  c2015
  c2016
  c2018
  c2019
  c2024
  c2025
  c2029
  c2033
  c2035
  c2039
  c204
  c2044
  c2048
  c205
  c2050
  c2051
  c2052
  c2053
  c2054
  c2055
  c2056
  c2057
  c2058
  c2061
  c2064
  c2065
  c2066
  c2070
  c2071
  c2072
  c2073
  c2076
  c2078
  c2084
  c2089
  c2091
  c2099
  c2101
  c2106
  c2108
  c2113
  c212
  c2123
  c2124
  c213
  c2130
  c2132
  c2136
  c2142
  c2147
  c215
  c2151
  c2155
  c2159
  c2163
  c2167
  c2171
  c2173
  c2174
  c2178
  c2181
  c2182
  c2187
  c2189
  c2190
  c2191
  c2192
  c2193
  c2194
  c2196
  c2197
  c22
  c220
  c2202
  c2203
  c2207
  c221
  c2211
  c2213
  c2217
  c2222
  c2226
  c2228
  c2229
  c223
  c2230
  c2231
  c2232
  c2233
  c2234
  c2235
  c2236
  c2239
  c224
  c2242
  c2243
  c2244
  c2248
  c2249
  c2251
  c2254
  c2256
  c2262
  c2267
  c2269
  c2277
  c2279
  c228
  c2284
  c2286
  c229
  c2291
  c2297
  c23
  c2302
  c231
  c2310
  c232
  c2325
  c2329
  c233
  c2333
  c2337
  c234
  c2341
  c2345
  c235
  c2352
  c236
  c2360
  c2365
  c2367
  c2368
  c2369
  c237
  c2370
  c2371
  c2372
  c2374
  c2375
  c238
  c2381
  c2389
  c239
  c2391
  c2395
  c2400
  c2404
  c2406
  c2407
  c2408
  c2409
  c2410
  c2412
  c2413
  c2414
  c2417
  c2420
  c2421
  c2422
  c2427
  c2429
  c2432
  c2434
  c244
  c2444
  c2445
  c2447
  c245
  c2455
  c2457
  c2462
  c2464
  c2469
  c2475
  c248
  c2480
  c2488
  c249
  c2503
  c2507
  c2511
  c2512
  c2518
  c2519
  c2525
  c2526
  c2532
  c2533
  c2534
  c2539
  c254
  c2540
  c2541
  c2546
  c2547
  c2548
  c255
  c2553
  c2554
  c2555
  c2559
  c2560
  c2561
  c2562
  c2566
  c2567
  c2568
  c2569
  c2573
  c2574
  c2575
  c2576
  c258
  c2580
  c2581
  c2582
  c2583
  c2587
  c2588
  c259
  c2591
  c2592
  c2595
  c2596
  c2599
  c2600
  c2601
  c2602
  c2604
  c2608
  c2616
  c264
  c267
  c268
  c270
  c271
  c272
  c273
  c275
  c276
  c277
  c278
  c296
  c3
  c34
  c35
  c350
  c352
  c356
  c362
  c363
  c365
  c37
  c374
  c375
  c378
  c379
  c382
  c383
  c390
  c391
  c393
  c398
  c399
  c4
  c401
  c402
  c406
  c407
  c409
  c410
  c411
  c412
  c413
  c414
  c415
  c416
  c417
  c422
  c423
  c426
  c427
  c430
  c431
  c432
  c433
  c436
  c437
  c442
  c445
  c446
  c448
  c449
  c450
  c451
  c452
  c453
  c454
  c455
  c456
  c46
  c462
  c470
  c471
  c474
  c476
  c482
  c497
  c5
  c505
  c506
  c511
  c517
  c528
  c530
  c534
  c540
  c541
  c543
  c549
  c552
  c553
  c556
  c557
  c56
  c560
  c561
  c568
  c569
  c571
  c576
  c577
  c579
  c58
  c580
  c584
  c585
  c587
  c588
  c589
  c59
  c590
  c591
  c592
  c593
  c594
  c595
  c6
  c600
  c601
  c604
  c605
  c608
  c609
  c61
  c610
  c611
  c614
  c615
  c620
  c623
  c624
  c626
  c627
  c628
  c629
  c630
  c631
  c632
  c633
  c634
  c640
  c642
  c646
  c647
  c648
  c649
  c652
  c654
  c660
  c661
  c663
  c675
  c677
  c681
  c682
  c683
  c684
  c689
  c695
  c696
  c698
  c7
  c706
  c708
  c712
  c718
  c723
  c727
  c730
  c731
  c734
  c735
  c738
  c739
  c746
  c747
  c749
  c754
  c755
  c757
  c758
  c76
  c762
  c763
  c765
  c766
  c767
  c768
  c769
  c77
  c770
  c771
  c772
  c773
  c778
  c779
  c782
  c783
  c786
  c787
  c788
  c789
  c792
  c793
  c798
  c8
  c80
  c801
  c802
  c804
  c805
  c806
  c807
  c808
  c809
  c81
  c810
  c811
  c812
  c818
  c820
  c824
  c825
  c826
  c827
  c830
  c832
  c838
  c839
  c841
  c853
  c855
  c859
  c86
  c860
  c861
  c862
  c867
  c873
  c874
  c876
  c884
  c886
  c89
  c890
  c896
  c897
  c899
  c9
  c90
  c903
  c908
  c909
  c912
  c913
  c916
  c917
  c92
  c920
  c921
  c924
  c925
  c927
  c928
  c93
  c932
  c933
  c935
  c936
  c94
  c940
  c941
  c943
  c944
  c945
  c946
  c947
  c948
  c949
  c95
  c950
  c951
  c956
  c957
  c960
  c961
  c964
  c965
  c966
  c967
  c970
  c971
  c976
  c979
  c980
  c982
  c983
  c984
  c985
  c986
  c987
  c988
  c989
  c990
  c993
  c994
  c996
  c997
  c998 )
